
Gurobi 9.5.1 (linux64) logging started Sun Jun 19 11:06:56 2022

Set parameter LogFile to value "../results/logs/log_soc-catster.e_21_2_2022_06_19_11_04.log"
Gurobi Optimizer version 9.5.1 build v9.5.1rc2 (linux64)
Thread count: 8 physical cores, 8 logical processors, using up to 8 threads
Optimize a model with 4007 rows, 299368 columns and 167530 nonzeros
Model fingerprint: 0x4f658d06
Variable types: 0 continuous, 299368 integer (299368 binary)
Coefficient statistics:
  Matrix range     [1e+00, 2e+01]
  Objective range  [1e+00, 1e+00]
  Bounds range     [1e+00, 1e+00]
  RHS range        [1e+00, 2e+00]
Found heuristic solution: objective 78945.000000
Presolve removed 3467 rows and 298557 columns
Presolve time: 0.27s
Presolved: 540 rows, 811 columns, 2952 nonzeros
Variable types: 0 continuous, 811 integer (700 binary)
Found heuristic solution: objective 78969.000000

Root relaxation: objective 7.904763e+04, 245 iterations, 0.00 seconds (0.00 work units)

    Nodes    |    Current Node    |     Objective Bounds      |     Work
 Expl Unexpl |  Obj  Depth IntInf | Incumbent    BestBd   Gap | It/Node Time

     0     0 79047.6333    0   57 78969.0000 79047.6333  0.10%     -    0s
H    0     0                    78978.000000 79047.6333  0.09%     -    0s
H    0     0                    78984.000000 79047.6333  0.08%     -    0s
     0     0 78998.4067    0   24 78984.0000 78998.4067  0.02%     -    0s
     0     0 78993.1772    0   13 78984.0000 78993.1772  0.01%     -    0s
     0     0 78991.5159    0   20 78984.0000 78991.5159  0.01%     -    0s
     0     0 78991.5159    0   23 78984.0000 78991.5159  0.01%     -    0s
     0     0 78991.5159    0   23 78984.0000 78991.5159  0.01%     -    0s
     0     0 78991.5159    0   23 78984.0000 78991.5159  0.01%     -    0s
H    0     0                    78985.000000 78991.5159  0.01%     -    0s
     0     0 78988.5000    0    6 78985.0000 78988.5000  0.00%     -    0s
     0     0     cutoff    0      78985.0000 78985.0000  0.00%     -    0s

Explored 1 nodes (374 simplex iterations) in 0.43 seconds (0.28 work units)
Thread count was 8 (of 8 available processors)

Solution count 6: 78985 78984 78978 ... 78945

Optimal solution found (tolerance 0.00e+00)
Best objective 7.898500000000e+04, best bound 7.898500000000e+04, gap 0.0000%
